decision_x1=[0,4];
decision_x2=[0,4];
decision_x3=[0,4];
decision_x4=[0,4];
decision_x5=[0,4];
decision_x6=[0,4];
decision_x7=[0,4];
decision_x8=[0,4];
decision_x9=[0,4];
decision_x10=[0,4];
random_y1=[0,4];
random_y2=[0,4];
random_y3=[0,4];
random_y4=[0,4];
random_y5=[0,4];
random_y6=[0,4];
random_y7=[0,4];
random_y8=[0,4];
random_y9=[0,4];
random_y10=[0,4];
constraint_x3_x1=[
0,0,48|
0,1,80|
0,2,14|
0,3,96|
0,4,27|
1,0,33|
1,1,16|
1,2,82|
1,3,95|
1,4,2.3|
2,0,15|
2,1,11|
2,2,63|
2,3,98|
2,4,39|
3,0,55|
3,1,1e+02|
3,2,83|
3,3,70|
3,4,70|
4,0,49|
4,1,94|
4,2,63|
4,3,68|
4,4,15|
];
constraint_x4_x3=[
0,0,28|
0,1,7.7|
0,2,0.36|
0,3,61|
0,4,74|
1,0,68|
1,1,9|
1,2,54|
1,3,89|
1,4,34|
2,0,90|
2,1,96|
2,2,80|
2,3,87|
2,4,1.6|
3,0,96|
3,1,1|
3,2,74|
3,3,30|
3,4,91|
4,0,76|
4,1,2|
4,2,25|
4,3,30|
4,4,67|
];
constraint_x5_x1=[
0,0,8.7|
0,1,31|
0,2,78|
0,3,14|
0,4,30|
1,0,40|
1,1,8.6|
1,2,98|
1,3,72|
1,4,45|
2,0,93|
2,1,21|
2,2,66|
2,3,20|
2,4,52|
3,0,77|
3,1,66|
3,2,35|
3,3,63|
3,4,76|
4,0,75|
4,1,26|
4,2,72|
4,3,1e+02|
4,4,55|
];
constraint_x5_x4=[
0,0,26|
0,1,90|
0,2,46|
0,3,10|
0,4,10|
1,0,14|
1,1,19|
1,2,12|
1,3,28|
1,4,57|
2,0,81|
2,1,20|
2,2,66|
2,3,79|
2,4,80|
3,0,19|
3,1,66|
3,2,91|
3,3,49|
3,4,34|
4,0,58|
4,1,83|
4,2,85|
4,3,34|
4,4,5.7|
];
constraint_x6_x1=[
0,0,89|
0,1,1.6|
0,2,20|
0,3,52|
0,4,57|
1,0,30|
1,1,33|
1,2,79|
1,3,94|
1,4,18|
2,0,30|
2,1,34|
2,2,11|
2,3,22|
2,4,66|
3,0,58|
3,1,2.1|
3,2,92|
3,3,46|
3,4,7.6|
4,0,11|
4,1,0.11|
4,2,90|
4,3,9.7|
4,4,62|
];
constraint_x6_x2=[
0,0,40|
0,1,67|
0,2,44|
0,3,36|
0,4,7.8|
1,0,45|
1,1,98|
1,2,56|
1,3,57|
1,4,45|
2,0,95|
2,1,11|
2,2,29|
2,3,40|
2,4,86|
3,0,58|
3,1,2.6|
3,2,8.8|
3,3,4.7|
3,4,17|
4,0,71|
4,1,48|
4,2,24|
4,3,68|
4,4,32|
];
constraint_x6_x4=[
0,0,22|
0,1,51|
0,2,1.7|
0,3,60|
0,4,67|
1,0,67|
1,1,84|
1,2,86|
1,3,96|
1,4,1e+02|
2,0,18|
2,1,24|
2,2,13|
2,3,92|
2,4,44|
3,0,1.9|
3,1,83|
3,2,89|
3,3,66|
3,4,65|
4,0,41|
4,1,97|
4,2,24|
4,3,95|
4,4,17|
];
constraint_x6_x5=[
0,0,33|
0,1,65|
0,2,70|
0,3,4.3|
0,4,3.5|
1,0,39|
1,1,86|
1,2,54|
1,3,45|
1,4,88|
2,0,50|
2,1,58|
2,2,57|
2,3,43|
2,4,76|
3,0,35|
3,1,84|
3,2,60|
3,3,57|
3,4,20|
4,0,62|
4,1,64|
4,2,20|
4,3,60|
4,4,48|
];
constraint_x7_x1=[
0,0,21|
0,1,34|
0,2,81|
0,3,48|
0,4,10|
1,0,15|
1,1,75|
1,2,68|
1,3,85|
1,4,38|
2,0,59|
2,1,22|
2,2,99|
2,3,73|
2,4,54|
3,0,49|
3,1,49|
3,2,17|
3,3,16|
3,4,87|
4,0,8.1|
4,1,72|
4,2,0.85|
4,3,14|
4,4,47|
];
constraint_x7_x2=[
0,0,79|
0,1,6.5|
0,2,29|
0,3,45|
0,4,67|
1,0,63|
1,1,3.1|
1,2,85|
1,3,20|
1,4,91|
2,0,63|
2,1,66|
2,2,91|
2,3,72|
2,4,39|
3,0,40|
3,1,0.24|
3,2,28|
3,3,29|
3,4,61|
4,0,27|
4,1,14|
4,2,56|
4,3,64|
4,4,86|
];
constraint_x7_x3=[
0,0,48|
0,1,93|
0,2,60|
0,3,91|
0,4,49|
1,0,11|
1,1,64|
1,2,76|
1,3,77|
1,4,85|
2,0,83|
2,1,19|
2,2,73|
2,3,64|
2,4,14|
3,0,81|
3,1,88|
3,2,18|
3,3,0.067|
3,4,13|
4,0,94|
4,1,1e+02|
4,2,81|
4,3,83|
4,4,77|
];
constraint_x8_x2=[
0,0,11|
0,1,51|
0,2,76|
0,3,11|
0,4,91|
1,0,66|
1,1,83|
1,2,9.3|
1,3,66|
1,4,5.5|
2,0,93|
2,1,67|
2,2,67|
2,3,32|
2,4,79|
3,0,54|
3,1,11|
3,2,98|
3,3,68|
3,4,91|
4,0,32|
4,1,48|
4,2,20|
4,3,97|
4,4,39|
];
constraint_x8_x3=[
0,0,21|
0,1,17|
0,2,70|
0,3,4.1|
0,4,9.2|
1,0,86|
1,1,91|
1,2,19|
1,3,17|
1,4,23|
2,0,20|
2,1,1.8|
2,2,74|
2,3,16|
2,4,30|
3,0,77|
3,1,61|
3,2,98|
3,3,82|
3,4,48|
4,0,95|
4,1,0.85|
4,2,0.33|
4,3,34|
4,4,23|
];
constraint_x8_x5=[
0,0,88|
0,1,74|
0,2,65|
0,3,73|
0,4,34|
1,0,51|
1,1,93|
1,2,81|
1,3,18|
1,4,28|
2,0,8.7|
2,1,29|
2,2,64|
2,3,81|
2,4,98|
3,0,27|
3,1,76|
3,2,11|
3,3,57|
3,4,31|
4,0,96|
4,1,49|
4,2,6.7|
4,3,67|
4,4,87|
];
constraint_x8_x6=[
0,0,69|
0,1,93|
0,2,47|
0,3,7.6|
0,4,80|
1,0,79|
1,1,41|
1,2,46|
1,3,93|
1,4,63|
2,0,55|
2,1,50|
2,2,68|
2,3,23|
2,4,27|
3,0,98|
3,1,2.1|
3,2,7.2|
3,3,46|
3,4,14|
4,0,55|
4,1,62|
4,2,61|
4,3,82|
4,4,57|
];
constraint_x9_x1=[
0,0,67|
0,1,8.5|
0,2,13|
0,3,72|
0,4,87|
1,0,40|
1,1,33|
1,2,20|
1,3,77|
1,4,87|
2,0,41|
2,1,79|
2,2,35|
2,3,12|
2,4,50|
3,0,91|
3,1,56|
3,2,64|
3,3,50|
3,4,2.9|
4,0,30|
4,1,36|
4,2,56|
4,3,2.3|
4,4,89|
];
constraint_x9_x4=[
0,0,24|
0,1,94|
0,2,16|
0,3,52|
0,4,35|
1,0,86|
1,1,8.6|
1,2,26|
1,3,61|
1,4,91|
2,0,15|
2,1,28|
2,2,48|
2,3,11|
2,4,64|
3,0,91|
3,1,8.6|
3,2,47|
3,3,76|
3,4,83|
4,0,78|
4,1,41|
4,2,44|
4,3,86|
4,4,78|
];
constraint_x9_x7=[
0,0,37|
0,1,52|
0,2,35|
0,3,83|
0,4,4.7|
1,0,19|
1,1,20|
1,2,78|
1,3,58|
1,4,62|
2,0,25|
2,1,29|
2,2,59|
2,3,4.6|
2,4,20|
3,0,39|
3,1,35|
3,2,36|
3,3,67|
3,4,99|
4,0,68|
4,1,83|
4,2,54|
4,3,4.8|
4,4,71|
];
constraint_x10_x1=[
0,0,49|
0,1,97|
0,2,63|
0,3,44|
0,4,27|
1,0,78|
1,1,70|
1,2,78|
1,3,40|
1,4,2.4|
2,0,64|
2,1,32|
2,2,97|
2,3,3|
2,4,63|
3,0,20|
3,1,41|
3,2,71|
3,3,9.8|
3,4,12|
4,0,21|
4,1,14|
4,2,40|
4,3,84|
4,4,44|
];
constraint_x10_x5=[
0,0,53|
0,1,98|
0,2,64|
0,3,52|
0,4,61|
1,0,90|
1,1,53|
1,2,63|
1,3,80|
1,4,54|
2,0,4.6|
2,1,87|
2,2,84|
2,3,24|
2,4,18|
3,0,80|
3,1,94|
3,2,70|
3,3,40|
3,4,8.1|
4,0,44|
4,1,0.63|
4,2,10|
4,3,20|
4,4,81|
];
constraint_x10_x6=[
0,0,84|
0,1,77|
0,2,28|
0,3,68|
0,4,41|
1,0,4|
1,1,89|
1,2,97|
1,3,26|
1,4,90|
2,0,63|
2,1,66|
2,2,89|
2,3,28|
2,4,97|
3,0,43|
3,1,31|
3,2,97|
3,3,27|
3,4,70|
4,0,97|
4,1,29|
4,2,99|
4,3,17|
4,4,54|
];
constraint_x10_x7=[
0,0,37|
0,1,69|
0,2,56|
0,3,71|
0,4,93|
1,0,48|
1,1,91|
1,2,56|
1,3,85|
1,4,92|
2,0,57|
2,1,45|
2,2,86|
2,3,30|
2,4,2.9|
3,0,72|
3,1,81|
3,2,46|
3,3,44|
3,4,8.6|
4,0,7.8|
4,1,21|
4,2,77|
4,3,99|
4,4,15|
];
constraint_x10_x8=[
0,0,77|
0,1,32|
0,2,40|
0,3,23|
0,4,60|
1,0,68|
1,1,10|
1,2,60|
1,3,70|
1,4,65|
2,0,15|
2,1,85|
2,2,41|
2,3,51|
2,4,91|
3,0,23|
3,1,57|
3,2,74|
3,3,21|
3,4,9.2|
4,0,94|
4,1,96|
4,2,66|
4,3,21|
4,4,97|
];
constraint_x1_y1=[
0,0,46|
0,1,78|
0,2,22|
0,3,1|
0,4,16|
1,0,67|
1,1,69|
1,2,70|
1,3,77|
1,4,64|
2,0,28|
2,1,47|
2,2,65|
2,3,51|
2,4,4.7|
3,0,36|
3,1,73|
3,2,40|
3,3,31|
3,4,52|
4,0,36|
4,1,52|
4,2,99|
4,3,54|
4,4,83|
];
constraint_x2_y2=[
0,0,98|
0,1,12|
0,2,59|
0,3,4.3|
0,4,64|
1,0,92|
1,1,80|
1,2,29|
1,3,56|
1,4,27|
2,0,87|
2,1,2.5|
2,2,36|
2,3,56|
2,4,93|
3,0,37|
3,1,22|
3,2,54|
3,3,59|
3,4,92|
4,0,15|
4,1,73|
4,2,73|
4,3,97|
4,4,92|
];
constraint_x3_y3=[
0,0,61|
0,1,69|
0,2,17|
0,3,46|
0,4,98|
1,0,29|
1,1,26|
1,2,25|
1,3,82|
1,4,31|
2,0,71|
2,1,58|
2,2,55|
2,3,94|
2,4,66|
3,0,72|
3,1,38|
3,2,51|
3,3,53|
3,4,97|
4,0,25|
4,1,64|
4,2,64|
4,3,21|
4,4,43|
];
constraint_x4_y4=[
0,0,7|
0,1,44|
0,2,15|
0,3,99|
0,4,14|
1,0,6.8|
1,1,92|
1,2,11|
1,3,18|
1,4,40|
2,0,93|
2,1,73|
2,2,4.9|
2,3,77|
2,4,91|
3,0,4|
3,1,49|
3,2,54|
3,3,84|
3,4,52|
4,0,40|
4,1,62|
4,2,1.9|
4,3,31|
4,4,49|
];
constraint_x5_y5=[
0,0,13|
0,1,97|
0,2,25|
0,3,5.1|
0,4,46|
1,0,37|
1,1,27|
1,2,84|
1,3,77|
1,4,72|
2,0,53|
2,1,22|
2,2,35|
2,3,47|
2,4,4.9|
3,0,63|
3,1,17|
3,2,9.3|
3,3,72|
3,4,39|
4,0,73|
4,1,54|
4,2,31|
4,3,79|
4,4,1.8|
];
constraint_x6_y6=[
0,0,93|
0,1,54|
0,2,72|
0,3,97|
0,4,1e+02|
1,0,63|
1,1,18|
1,2,36|
1,3,55|
1,4,38|
2,0,69|
2,1,51|
2,2,86|
2,3,58|
2,4,3.2|
3,0,1.1|
3,1,62|
3,2,0.083|
3,3,68|
3,4,96|
4,0,32|
4,1,24|
4,2,39|
4,3,28|
4,4,88|
];
constraint_x7_y7=[
0,0,25|
0,1,41|
0,2,27|
0,3,89|
0,4,52|
1,0,24|
1,1,82|
1,2,85|
1,3,51|
1,4,31|
2,0,50|
2,1,31|
2,2,41|
2,3,59|
2,4,82|
3,0,56|
3,1,92|
3,2,60|
3,3,20|
3,4,40|
4,0,39|
4,1,0.87|
4,2,95|
4,3,82|
4,4,85|
];
constraint_x8_y8=[
0,0,87|
0,1,69|
0,2,34|
0,3,5.7|
0,4,4.4|
1,0,77|
1,1,73|
1,2,86|
1,3,38|
1,4,2.7|
2,0,37|
2,1,20|
2,2,48|
2,3,68|
2,4,50|
3,0,62|
3,1,85|
3,2,40|
3,3,80|
3,4,11|
4,0,30|
4,1,0.6|
4,2,8.3|
4,3,22|
4,4,64|
];
constraint_x9_y9=[
0,0,12|
0,1,75|
0,2,15|
0,3,15|
0,4,92|
1,0,8.1|
1,1,99|
1,2,24|
1,3,18|
1,4,60|
2,0,7.8|
2,1,70|
2,2,42|
2,3,30|
2,4,27|
3,0,33|
3,1,32|
3,2,43|
3,3,34|
3,4,62|
4,0,78|
4,1,82|
4,2,74|
4,3,54|
4,4,68|
];
constraint_x10_y10=[
0,0,8.6|
0,1,53|
0,2,29|
0,3,97|
0,4,56|
1,0,83|
1,1,1|
1,2,85|
1,3,48|
1,4,9.2|
2,0,69|
2,1,82|
2,2,30|
2,3,86|
2,4,15|
3,0,60|
3,1,33|
3,2,42|
3,3,92|
3,4,34|
4,0,23|
4,1,41|
4,2,14|
4,3,11|
4,4,39|
];
initial_distribution_y1=[0.31,0.028,0.31,0.0048,0.34];
initial_distribution_y2=[0.3,0.17,0.077,0.072,0.38];
initial_distribution_y3=[0.03,0.35,0.25,0.12,0.25];
initial_distribution_y4=[0.31,0.29,0.19,0.043,0.17];
initial_distribution_y5=[0.23,0.17,0.2,0.28,0.13];
initial_distribution_y6=[0.31,0.039,0.28,0.32,0.044];
initial_distribution_y7=[0.26,0.12,0.23,0.25,0.15];
initial_distribution_y8=[0.15,0.011,0.032,0.6,0.21];
initial_distribution_y9=[0.12,0.19,0.087,0.23,0.37];
initial_distribution_y10=[0.038,0.26,0.21,0.34,0.16];
transition_y1=[
0.22,0.08,0.16,0.23,0.31|
0.087,0.39,0.14,0.27,0.11|
0.26,0.087,0.14,0.23,0.27|
0.36,0.41,0.02,0.2,0.018|
0.45,0.048,0.24,0.17,0.092|
];
transition_y2=[
0.34,0.075,0.23,0.058,0.3|
0.46,0.11,0.17,0.22,0.045|
0.28,0.25,0.02,0.18,0.27|
0.074,0.21,0.36,0.33,0.022|
0.03,0.084,0.28,0.32,0.29|
];
transition_y3=[
0.36,0.049,0.028,0.22,0.35|
0.24,0.17,0.27,0.09,0.24|
0.36,0.17,0.042,0.2,0.22|
0.19,0.24,0.41,0.021,0.13|
0.071,0.21,0.17,0.32,0.23|
];
transition_y4=[
0.14,0.29,0.46,0.1,0.013|
0.23,0.3,0.18,0.032,0.26|
0.13,0.33,0.17,0.28,0.09|
0.075,0.27,0.29,0.11,0.26|
0.26,0.081,0.18,0.12,0.35|
];
transition_y5=[
0.31,0.36,0.036,0.018,0.28|
0.17,0.038,0.23,0.24,0.32|
0.22,0.11,0.15,0.35,0.16|
0.11,0.029,0.37,0.37,0.13|
0.26,0.084,0.36,0.27,0.031|
];
transition_y6=[
0.12,0.2,0.29,0.12,0.27|
0.13,0.17,0.33,0.34,0.037|
0.23,0.15,0.25,0.24,0.14|
0.26,0.16,0.17,0.3,0.11|
0.1,0.31,0.027,0.21,0.34|
];
transition_y7=[
0.42,0.019,0.3,0.049,0.21|
0.034,0.43,0.12,0.19,0.22|
0.027,0.085,0.48,0.21,0.2|
0.13,0.049,0.34,0.31,0.17|
0.1,0.3,0.13,0.39,0.074|
];
transition_y8=[
0.41,0.29,0.18,0.088,0.033|
0.3,0.18,0.07,0.26,0.2|
0.11,0.22,0.29,0.13,0.25|
0.22,0.32,0.019,0.013,0.42|
0.28,0.13,0.18,0.22,0.2|
];
transition_y9=[
0.19,0.24,0.15,0.24,0.19|
0.35,0.24,0.25,0.041,0.12|
0.054,0.26,0.28,0.32,0.088|
0.18,0.12,0.19,0.3,0.22|
0.3,0.096,0.26,0.26,0.076|
];
transition_y10=[
0.036,0.39,0.054,0.13,0.39|
0.18,0.21,0.21,0.18,0.22|
0.15,0.049,0.18,0.2,0.42|
0.076,0.08,0.29,0.41,0.14|
0.25,0.2,0.18,0.24,0.13|
];
